(declare-fun Constructed_Argument_t () String)
(declare-fun CreateAsClass () Bool)
(declare-fun Constructed_Argument () String)
(declare-fun ExpandObjSwitcher () Real)
(assert (= Constructed_Argument_t "string"))
(assert CreateAsClass)
(assert (not (= Constructed_Argument "")))
(assert (not (= ExpandObjSwitcher 0.0)))
(assert (not (= ExpandObjSwitcher 1.0)))
(check-sat)
